/*********************************************
 * OPL 12.6.0.0 Data
 * Author: Adrian Rodriguez Bazaga, Pau Rodriguez Esmerats
 * Creation Date: 06/12/2017 at 23:02:56
 *********************************************/

nNurses=146;
maxConsec=2;
maxPresence=7;
maxHours=5;
minHours=1;
hours=24;
demand= [26 28 32 34 28 32 34 29 21 11 1 4 5 5 6 4 6 2 5 1 20 34 15 30  ];
